Please solve the following SAT Problem encoded in DIMACS format, only return a single solution assignment without explanations, if there is any: 
p cnf 10 50
5 -6 -10 0
4 -9 -8 0
-1 -3 7 0
-10 1 4 0
5 -6 4 0
7 -8 -3 0
-7 -6 5 0
-8 6 -9 0
-9 2 -8 0
-3 7 8 0
7 -8 5 0
2 1 -10 0
-10 2 -6 0
-6 -9 2 0
7 -1 -3 0
2 -1 3 0
5 6 7 0
2 -10 5 0
10 2 4 0
4 -1 7 0
-6 5 -3 0
-8 -9 3 0
-10 -9 -3 0
-9 -3 5 0
-1 9 -8 0
-5 4 -1 0
5 -10 -8 0
-9 -1 3 0
-2 -3 -10 0
-3 4 7 0
4 -6 -1 0
4 5 -3 0
7 2 4 0
4 -10 -3 0
2 -6 -7 0
6 -9 4 0
8 -1 5 0
-7 2 4 0
-10 -6 5 0
2 -10 -7 0
2 5 -10 0
-6 -10 4 0
2 -3 -9 0
5 2 9 0
-4 -9 -6 0
1 -8 -4 0
-1 -9 -3 0
-9 -4 2 0
8 7 -1 0
-9 7 -1 0

